c clasp version 2.1.1
c Reading from pb_300_03.cnf
c Solving...
s UNSATISFIABLE

c Models        : 0     
c Time          : 700.997s (Solving: 699.51s 1st Model: 0.00s Unsat: 699.51s)
c CPU Time      : 699.870s
c Choices       : 5134288
c Conflicts     : 2185088
c Restarts      : 1987   (Average: 1099.69 Last: 5813)

c Variables     : 384939 (Eliminated: 120536 Frozen:    0)
c Constraints   : 464756 (Binary: 64.3% Ternary: 34.8% Other:  1.0%)
c Lemmas        : 2185087 (Binary:  0.2% Ternary:  0.5% Other: 99.3%)
c   Conflict    : 2185087 (Average Length: 44.5) 
c   Loop        : 0      (Average Length: 0.0) 
c   Other       : 0      (Average Length: 0.0)
c   Deleted     : 2053650
